sat
(:max-memory         18.72
 :memory             18.52
 :nlsat-arith-var    3
 :nlsat-atoms        17
 :nlsat-bool-var     2
 :nlsat-clauses      10
 :nlsat-conflicts    3
 :nlsat-decisions    3
 :nlsat-propagations 16
 :nlsat-stages       7
 :num-allocs         126678
 :rlimit-count       35121
 :time               0.03
 :total-time         0.04)
